CPXPARAM_Read_DataCheck                          1
Found incumbent of value 0.000000 after 0.00 sec. (0.08 ticks)
Tried aggregator 1 time.
MIP Presolve eliminated 4 rows and 0 columns.
MIP Presolve modified 1 coefficients.
Reduced MIP has 329 rows, 3010 columns, and 13834 nonzeros.
Reduced MIP has 3010 binaries, 0 generals, 0 SOSs, and 0 indicators.
Presolve time = 0.00 sec. (5.42 ticks)
Tried aggregator 1 time.
Reduced MIP has 329 rows, 3010 columns, and 13834 nonzeros.
Reduced MIP has 3010 binaries, 0 generals, 0 SOSs, and 0 indicators.
Presolve time = 0.00 sec. (6.06 ticks)
Probing time = 0.00 sec. (1.82 ticks)
Clique table members: 4202.
MIP emphasis: balance optimality and feasibility.
MIP search method: dynamic search.
Parallel mode: deterministic, using up to 4 threads.
Root relaxation solution time = 0.02 sec. (15.65 ticks)

        Nodes                                         Cuts/
   Node  Left     Objective  IInf  Best Integer    Best Bound    ItCnt     Gap

*     0+    0                            0.0000    18389.0000              --- 
      0     0     9794.4181    14        0.0000     9794.4181      817     --- 
*     0+    0                         2792.0000     9794.4181           250.80%
      0     0        cutoff           2792.0000     2792.0000     1965    0.00%
Elapsed time = 0.23 sec. (160.22 ticks, tree = 0.01 MB, solutions = 2)

Clique cuts applied:  151
Cover cuts applied:  3
Implied bound cuts applied:  1
Mixed integer rounding cuts applied:  11
Zero-half cuts applied:  8
Gomory fractional cuts applied:  8

Root node processing (before b&c):
  Real time             =    0.23 sec. (160.43 ticks)
Parallel b&c, 4 threads:
  Real time             =    0.00 sec. (0.00 ticks)
  Sync time (average)   =    0.00 sec.
  Wait time (average)   =    0.00 sec.
                          ------------
Total (root+branch&cut) =    0.23 sec. (160.43 ticks)
